15
0 48 53 94 65 28 83 50 74 9 48 58 36 54 9
48 0 35 70 72 61 38 20 47 50 48 52 23 17 80
53 35 0 52 27 37 32 18 61 55 55 65 81 50 42
94 70 52 0 35 56 87 33 58 57 67 66 23 65 46
65 72 27 35 0 41 15 68 41 73 38 35 25 67 44
28 61 37 56 41 0 61 26 57 57 44 40 30 58 79
83 38 32 87 15 61 0 38 14 67 14 37 60 60 35
50 20 18 33 68 26 38 0 51 51 41 69 42 88 82
74 47 61 58 41 57 14 51 0 97 52 14 56 51 95
9 50 55 57 73 57 67 51 97 0 38 79 53 85 56
48 48 55 67 38 44 14 41 52 38 0 78 62 46 24
58 52 65 66 35 40 37 69 14 79 78 0 31 74 68
36 23 81 23 25 30 60 42 56 53 62 31 0 20 50
54 17 50 65 67 58 60 88 51 85 46 74 20 0 68
9 80 42 46 44 79 35 82 95 56 24 68 50 68 0
